c Sudoku solution
p cnf 729 0
116 0
151 0
284 0
297 0
325 0
356 0
276 0
383 0
419 0
447 0
517 0
523 0
535 0
586 0
652 0
685 0
677 0
713 0
729 0
737 0
127 0
367 0
758 0
795 0
175 0
869 0
874 0
955 0
857 0
815 0
987 0
245 0
465 0
189 0
962 0
212 0
592 0
198 0
142 0
391 0
372 0
771 0
782 0
888 0
481 0
561 0
221 0
453 0
478 0
579 0
494 0
693 0
548 0
554 0
666 0
649 0
268 0
318 0
344 0
163 0
259 0
134 0
233 0
339 0
746 0
764 0
973 0
896 0
999 0
843 0
941 0
831 0
914 0
822 0
611 0
638 0
624 0
426 0
432 0
928 0
936 0
